11,0	0,0	8,5	14,8	0,0	0,0	0,0	0,0	0,0	8,8
11,7	15,2	0,0	11,4	18,1	0,0	0,0	6,5	0,0	0,0
0,0	0,0	19,4	0,0	7,6	15,8	0,0	0,0	15,8	0,0
7,8	0,0	7,5	0,0	0,0	0,0	7,9	0,0	0,0	0,0
0,0	9,6	0,0	10,2	6,0	0,0	0,0	8,1	0,0	0,0
0,0	9,5	10,6	0,0	10,8	6,1	0,0	0,0	15,1	0,0
0,0	12,7	0,0	19,8	0,0	0,0	19,0	0,0	0,0	6,1
17,9	0,0	18,9	0,0	0,0	0,0	0,0	0,0	0,0	17,8
0,0	11,5	0,0	9,7	19,8	0,0	0,0	16,4	0,0	0,0
0,0	0,0	14,7	0,0	0,0	8,7	6,1	0,0	0,0	18,5
									
2,9	3,6	4,0	4,4	4,0	4,0	3,8	3,6	4,6	4,7
